language ESSENCE' 1.0

letting n_cars be 200
letting n_classes be 28
letting n_options be 5
letting quantity_Function1D be
        [3, 8, 3, 1, 2, 5, 5, 1, 1, 29, 20, 1, 1, 2, 14, 4, 9, 11, 3, 5, 9, 17, 1, 1, 13, 2, 7, 22; int(1..28)]
letting usage_RelationAsMatrix be
        [[false, false, true, true, false; int(1..5)], [true, false, false, true, false; int(1..5)],
         [true, false, false, false, true; int(1..5)], [true, false, true, true, true; int(1..5)],
         [true, true, true, false, true; int(1..5)], [true, true, true, true, false; int(1..5)],
         [true, false, true, true, false; int(1..5)], [true, false, false, true, true; int(1..5)],
         [false, true, false, true, true; int(1..5)], [false, true, false, false, false; int(1..5)],
         [false, false, false, true, false; int(1..5)], [true, true, false, true, true; int(1..5)],
         [false, false, false, false, true; int(1..5)], [false, false, true, false, true; int(1..5)],
         [false, true, true, false, false; int(1..5)], [true, false, true, false, false; int(1..5)],
         [false, true, false, false, true; int(1..5)], [false, false, true, false, false; int(1..5)],
         [false, true, true, true, false; int(1..5)], [true, true, true, false, false; int(1..5)],
         [true, true, false, false, true; int(1..5)], [true, false, false, false, false; int(1..5)],
         [true, true, true, true, true; int(1..5)], [true, false, true, false, false; int(1..5)],
         [false, true, false, false, false; int(1..5)], [false, true, false, false, false; int(1..5)],
         [false, false, false, false, false; int(1..5)], [false, false, false, false, false; int(1..5)]; int(1..28)]
$ Here is a simple "visualisation" for the value above.
$ _ _ T T _
$ T _ _ T _
$ T _ _ _ T
$ T _ T T T
$ T T T _ T
$ T T T T _
$ T _ T T _
$ T _ _ T T
$ _ T _ T T
$ _ T _ _ _
$ _ _ _ T _
$ T T _ T T
$ _ _ _ _ T
$ _ _ T _ T
$ _ T T _ _
$ T _ T _ _
$ _ T _ _ T
$ _ _ T _ _
$ _ T T T _
$ T T T _ _
$ T T _ _ T
$ T _ _ _ _
$ T T T T T
$ T _ T _ _
$ _ T _ _ _
$ _ T _ _ _
$ _ _ _ _ _
$ _ _ _ _ _

letting blksize_Function1D be [2, 3, 3, 5, 5; int(1..5)]
letting maxcars_Function1D be [1, 2, 1, 2, 1; int(1..5)]
letting fin1 be 28
letting fin2 be 29
letting fin3 be 5
letting fin4 be 2
letting fin5 be 5
letting fin6 be 5
letting fin7 be 62
